%%% static parameters %%%
timespan = 1;
Clients_N = [4000];
Demand_W = [15];
Lt0 = [4];
Lt1 = [4];
SS_ = [0.85];
DS_D = [20];
K = [200];
MA = [500];
HC = [0.05];
%%% dynamic parameters %%%
lost_ratio_sales_ret_th = 0.0008126964261883909;
lost_ratio_sales_ret_w = 14;
lost_ratio_sales_dis_th = 0.00013429099672754673;
lost_ratio_sales_dis_w = 60;
lost_ratio_sales_fac_th = 0.0007278620186264598;
lost_ratio_sales_fac_w = 71;
stock_customer_MA_mean_relative_th = 0.22940073265987415;
stock_customer_MA_mean_relative_w = 40;
stock_distributor_MA_mean_relative_th = 0.7793331569607056;
stock_distributor_MA_mean_relative_w = 14;
stock_retailer_MA_mean_relative_th = 0.15915556423813615;
stock_retailer_MA_mean_relative_w = 2;
stock_factory_MA_mean_relative_th = 0.42429725776403215;
stock_factory_MA_mean_relative_w = 59;
